Set parameter WLSAccessID
Set parameter WLSSecret
Set parameter LicenseID to value 2604445
Academic license 2604445 - for non-commercial use only - registered to an___@um.edu.mt
Set parameter Seed to value 23
Set parameter TimeLimit to value 880
Gurobi Optimizer version 12.0.2 build v12.0.2rc0 (linux64 - "Ubuntu 22.04.5 LTS")

CPU model: Intel(R) Core(TM) i5-10400 CPU @ 2.90GHz, instruction set [SSE2|AVX|AVX2]
Thread count: 6 physical cores, 12 logical processors, using up to 12 threads

Non-default parameters:
TimeLimit  880
Seed  23

Academic license 2604445 - for non-commercial use only - registered to an___@um.edu.mt
Optimize a model with 5865824 rows, 101848 columns and 12081824 nonzeros
Model fingerprint: 0xbaf72730
Variable types: 0 continuous, 101848 integer (80864 binary)
Coefficient statistics:
  Matrix range     [1e+00, 7e+01]
  Objective range  [5e-08, 1e-02]
  Bounds range     [1e+00, 3e+02]
  RHS range        [1e+00, 7e+01]
Presolve removed 32599 rows and 28563 columns (presolve time = 5s)...
Presolve removed 33799 rows and 28563 columns (presolve time = 10s)...
Presolve removed 35916 rows and 28580 columns (presolve time = 15s)...
Presolve removed 35916 rows and 28580 columns (presolve time = 20s)...
Presolve removed 35916 rows and 28580 columns (presolve time = 25s)...
Presolve removed 35916 rows and 28580 columns (presolve time = 31s)...
Presolve removed 35916 rows and 28580 columns
Presolve time: 31.89s
Presolved: 5829908 rows, 73268 columns, 11939288 nonzeros
Variable types: 0 continuous, 73268 integer (54608 binary)
Deterministic concurrent LP optimizer: primal simplex, dual simplex, and barrier
Showing barrier log only...

Root barrier log...

Ordering time: 0.02s

Barrier statistics:
 Dense cols : 4
 Free vars  : 221
 AA' NZ     : 5.403e+04
 Factor NZ  : 8.056e+04 (roughly 40 MB of memory)
 Factor Ops : 1.352e+07 (less than 1 second per iteration)
 Threads    : 3

                  Objective                Residual
Iter       Primal          Dual         Primal    Dual     Compl     Time
   0  -6.80918923e+05  5.00000000e+00  3.88e-01 7.10e+01  1.74e+01    78s
   1  -2.56534436e+05  4.62465501e+00  2.95e-04 2.80e+01  3.69e+00    78s
   2  -2.47238316e+04  1.66861294e+00  4.46e-09 1.03e+00  2.55e-01    78s

Barrier performed 2 iterations in 77.73 seconds (57.72 work units)
Barrier solve interrupted - model solved by another algorithm

Concurrent spin time: 0.16s (can be avoided by choosing Method=3)

Solved with dual simplex

Root simplex log...

Iteration    Objective       Primal Inf.    Dual Inf.      Time
    1726    1.6225305e-03   0.000000e+00   0.000000e+00     78s

Root simplex log...

Iteration    Objective       Primal Inf.    Dual Inf.      Time
    1726    1.6225305e-03   0.000000e+00   0.000000e+00     78s

Use crossover to convert LP symmetric solution to basic solution...

Root crossover log...

     791 DPushes remaining with DInf 1.3899935e-04                83s
       0 DPushes remaining with DInf 0.0000000e+00                85s

   26667 PPushes remaining with PInf 0.0000000e+00                85s
   13524 PPushes remaining with PInf 0.0000000e+00               104s
    7116 PPushes remaining with PInf 0.0000000e+00               106s
     445 PPushes remaining with PInf 0.0000000e+00               111s
       0 PPushes remaining with PInf 0.0000000e+00               112s

  Push phase complete: Pinf 0.0000000e+00, Dinf 4.7002080e-03    113s


Root simplex log...

Iteration    Objective       Primal Inf.    Dual Inf.      Time
   29105    1.6227760e-03   0.000000e+00   4.700208e-03    114s
   29171    1.6227760e-03   0.000000e+00   0.000000e+00    115s
   29171    1.6227760e-03   0.000000e+00   0.000000e+00    117s

Root relaxation: objective 1.622776e-03, 29171 iterations, 61.43 seconds (44.26 work units)
Total elapsed time = 132.84s (DegenMoves)
Total elapsed time = 146.84s (DegenMoves)
Total elapsed time = 159.95s (DegenMoves)
Total elapsed time = 171.54s (DegenMoves)

    Nodes    |    Current Node    |     Objective Bounds      |     Work
 Expl Unexpl |  Obj  Depth IntInf | Incumbent    BestBd   Gap | It/Node Time

     0     0    0.00162    0 1441          -    0.00162      -     -  190s
     0     0    0.00182    0 2280          -    0.00182      -     -  318s
     0     0    0.00182    0 2123          -    0.00182      -     -  430s
H    0     0                       5.0047093    0.00182   100%     -  446s
     0     0    0.00184    0 2444    5.00471    0.00184   100%     -  491s
H    0     0                       4.2343605    0.00184   100%     -  496s
H    0     0                       2.9984456    0.00184   100%     -  516s
H    0     0                       2.9694313    0.00184   100%     -  516s
     0     0    0.00184    0 2215    2.96943    0.00184   100%     -  532s
     0     0    0.00184    0 2496    2.96943    0.00184   100%     -  607s
H    0     0                       2.9694297    0.00184   100%     -  647s
H    0     0                       2.7949525    0.00184   100%     -  669s
     0     0    0.00184    0 2098    2.79495    0.00184   100%     -  691s
     0     0    0.00184    0 2341    2.79495    0.00184   100%     -  781s
H    0     0                       2.7507438    0.00184   100%     -  811s
     0     0    0.00184    0 2209    2.75074    0.00184   100%     -  842s
     0     0          -    0         2.75074    0.00184   100%     -  880s

Cutting planes:
  Gomory: 132
  Cover: 1459
  Implied bound: 2636
  Clique: 864
  MIR: 2216
  StrongCG: 54
  Zero half: 839
  RLT: 169
  Relax-and-lift: 1449

Explored 1 nodes (107790 simplex iterations) in 880.22 seconds (962.92 work units)
Thread count was 12 (of 12 available processors)

Solution count 7: 2.75074 2.79495 2.96943 ... 5.00471

Time limit reached
Best objective 2.750743802880e+00, best bound 1.839046167944e-03, gap 99.9331%
Objective Function at this solution: [[0, 1, 9], [0, 4, 2], [0, 25, 42], [1, 2, 9], [2, 22, 42], [3, 4, 6], [3, 4, 17], [3, 4, 22], [3, 4, 26], [3, 4, 32], [3, 4, 36], [3, 4, 38], [3, 4, 40], [4, 5, 2], [4, 5, 6], [4, 5, 17], [4, 5, 22], [4, 5, 26], [4, 5, 32], [4, 5, 36], [4, 5, 38], [4, 5, 40], [5, 6, 2], [5, 6, 17], [5, 6, 22], [5, 6, 26], [5, 6, 40], [5, 75, 1], [5, 75, 4], [5, 75, 5], [5, 75, 6], [5, 75, 7], [5, 75, 8], [5, 75, 12], [5, 75, 13], [5, 75, 15], [5, 75, 16], [5, 75, 19], [5, 75, 20], [5, 75, 21], [5, 75, 23], [5, 75, 27], [5, 75, 28], [5, 75, 29], [5, 75, 30], [5, 75, 32], [5, 75, 33], [5, 75, 35], [5, 75, 36], [5, 75, 37], [5, 75, 38], [5, 75, 41], [5, 75, 43], [6, 7, 2], [6, 20, 1], [6, 20, 4], [6, 20, 5], [6, 20, 7], [6, 20, 8], [6, 20, 9], [6, 20, 12], [6, 20, 13], [6, 20, 15], [6, 20, 16], [6, 20, 17], [6, 20, 19], [6, 20, 20], [6, 20, 21], [6, 20, 22], [6, 20, 23], [6, 20, 26], [6, 20, 27], [6, 20, 28], [6, 20, 29], [6, 20, 30], [6, 20, 33], [6, 20, 35], [6, 20, 36], [6, 20, 37], [6, 20, 40], [6, 20, 41], [6, 20, 43], [6, 76, 6], [6, 76, 32], [6, 76, 38], [7, 6, 9], [7, 77, 3], [8, 120, 3], [9, 7, 59], [9, 79, 3], [20, 21, 1], [20, 21, 5], [20, 21, 7], [20, 21, 8], [20, 21, 9], [20, 21, 12], [20, 21, 13], [20, 21, 15], [20, 21, 16], [20, 21, 17], [20, 21, 19], [20, 21, 20], [20, 21, 21], [20, 21, 22], [20, 21, 23], [20, 21, 27], [20, 21, 28], [20, 21, 33], [20, 21, 35], [20, 21, 36], [20, 21, 37], [20, 21, 40], [20, 21, 41], [20, 21, 43], [20, 129, 4], [20, 129, 26], [20, 129, 29], [20, 129, 30], [21, 0, 9], [21, 2, 1], [21, 2, 5], [21, 2, 7], [21, 2, 8], [21, 2, 12], [21, 2, 13], [21, 2, 15], [21, 2, 16], [21, 2, 17], [21, 2, 19], [21, 2, 20], [21, 2, 21], [21, 2, 22], [21, 2, 23], [21, 2, 27], [21, 2, 28], [21, 2, 33], [21, 2, 35], [21, 2, 36], [21, 2, 37], [21, 2, 40], [21, 2, 41], [21, 2, 43], [22, 152, 42], [25, 26, 2], [26, 0, 2], [35, 36, 14], [36, 37, 14], [37, 38, 14], [38, 114, 14], [39, 40, 14], [40, 41, 14], [41, 42, 14], [41, 115, 42], [42, 131, 14], [49, 237, 39], [50, 295, 39], [51, 321, 58], [52, 332, 3], [60, 61, 59], [61, 62, 59], [62, 63, 59], [63, 64, 59], [64, 65, 59], [65, 66, 59], [66, 9, 59], [68, 213, 18], [69, 70, 18], [70, 71, 10], [70, 71, 18], [70, 71, 34], [71, 72, 10], [71, 72, 18], [71, 72, 34], [72, 73, 10], [72, 73, 18], [72, 73, 34], [75, 6, 1], [75, 6, 4], [75, 6, 5], [75, 6, 6], [75, 6, 7], [75, 6, 8], [75, 6, 12], [75, 6, 13], [75, 6, 15], [75, 6, 16], [75, 6, 19], [75, 6, 20], [75, 6, 21], [75, 6, 23], [75, 6, 27], [75, 6, 28], [75, 6, 29], [75, 6, 30], [75, 6, 32], [75, 6, 33], [75, 6, 35], [75, 6, 36], [75, 6, 37], [75, 6, 38], [75, 6, 41], [75, 6, 43], [76, 7, 6], [76, 7, 32], [76, 7, 38], [77, 8, 3], [79, 52, 3], [105, 68, 18], [106, 107, 34], [107, 118, 10], [107, 118, 34], [109, 155, 42], [110, 111, 42], [111, 112, 42], [112, 41, 42], [113, 119, 14], [114, 39, 14], [115, 116, 42], [116, 117, 42], [117, 109, 42], [118, 70, 10], [118, 70, 34], [119, 35, 14], [120, 9, 3], [126, 127, 10], [127, 106, 34], [127, 197, 10], [128, 5, 1], [128, 5, 4], [128, 5, 5], [128, 5, 7], [128, 5, 8], [128, 5, 12], [128, 5, 13], [128, 5, 15], [128, 5, 16], [128, 5, 19], [128, 5, 20], [128, 5, 21], [128, 5, 23], [128, 5, 27], [128, 5, 28], [128, 5, 29], [128, 5, 30], [128, 5, 33], [128, 5, 35], [128, 5, 37], [128, 5, 41], [128, 5, 43], [129, 130, 4], [129, 130, 26], [129, 130, 29], [129, 130, 30], [131, 132, 14], [132, 133, 14], [133, 135, 14], [135, 136, 14], [136, 137, 14], [137, 150, 14], [138, 139, 14], [139, 140, 14], [140, 141, 14], [141, 142, 14], [142, 143, 14], [143, 144, 14], [144, 145, 14], [145, 2, 14], [148, 151, 14], [149, 148, 14], [150, 149, 14], [151, 138, 14], [152, 153, 42], [153, 110, 42], [155, 0, 42], [165, 270, 31], [165, 270, 55], [172, 173, 52], [172, 173, 54], [173, 235, 44], [173, 235, 45], [173, 235, 46], [173, 235, 47], [173, 235, 48], [173, 235, 49], [173, 235, 50], [173, 235, 51], [173, 235, 52], [173, 235, 53], [173, 235, 54], [178, 266, 24], [197, 107, 10], [208, 209, 44], [208, 209, 45], [208, 209, 46], [208, 209, 47], [208, 209, 48], [208, 209, 49], [208, 209, 50], [208, 209, 51], [208, 209, 52], [208, 209, 53], [208, 209, 54], [209, 172, 52], [209, 172, 54], [209, 210, 44], [209, 210, 45], [209, 210, 46], [209, 210, 47], [209, 210, 48], [209, 210, 49], [209, 210, 50], [209, 210, 51], [209, 210, 53], [210, 173, 44], [210, 173, 45], [210, 173, 46], [210, 173, 47], [210, 173, 48], [210, 173, 49], [210, 173, 50], [210, 173, 51], [210, 173, 53], [211, 178, 24], [213, 214, 18], [214, 280, 18], [229, 230, 18], [230, 69, 18], [231, 127, 34], [233, 208, 44], [233, 208, 45], [233, 208, 46], [233, 208, 47], [233, 208, 48], [233, 208, 49], [233, 208, 50], [233, 208, 51], [233, 208, 52], [233, 208, 53], [233, 208, 54], [234, 105, 18], [235, 236, 44], [235, 236, 45], [235, 236, 46], [235, 236, 47], [235, 236, 48], [235, 236, 49], [235, 236, 50], [235, 236, 51], [235, 236, 52], [235, 236, 53], [235, 236, 54], [236, 237, 44], [236, 237, 45], [236, 237, 46], [236, 237, 47], [236, 237, 48], [236, 237, 49], [236, 237, 50], [236, 237, 51], [236, 237, 52], [236, 237, 53], [236, 237, 54], [237, 238, 39], [237, 238, 44], [237, 238, 45], [237, 238, 46], [237, 238, 47], [237, 238, 48], [237, 238, 49], [237, 238, 50], [237, 238, 51], [237, 238, 52], [237, 238, 53], [237, 238, 54], [238, 239, 39], [238, 239, 44], [238, 239, 45], [238, 239, 46], [238, 239, 47], [238, 239, 48], [238, 239, 49], [238, 239, 50], [238, 239, 51], [238, 239, 52], [238, 239, 53], [238, 239, 54], [239, 240, 44], [239, 240, 45], [239, 240, 46], [239, 240, 48], [239, 240, 52], [239, 240, 54], [239, 255, 39], [239, 255, 47], [239, 255, 49], [239, 255, 50], [239, 255, 51], [239, 255, 53], [240, 241, 44], [240, 255, 45], [240, 255, 46], [240, 255, 48], [240, 255, 52], [240, 255, 54], [241, 242, 44], [242, 243, 44], [246, 247, 25], [247, 248, 25], [248, 249, 25], [249, 254, 25], [254, 253, 25], [255, 303, 25], [261, 262, 24], [262, 263, 24], [263, 211, 24], [265, 60, 59], [266, 267, 24], [267, 287, 24], [270, 165, 56], [270, 271, 31], [270, 271, 55], [271, 272, 31], [271, 272, 55], [272, 273, 11], [272, 273, 31], [272, 273, 55], [272, 273, 57], [272, 273, 60], [272, 279, 56], [273, 274, 11], [273, 274, 31], [273, 274, 55], [273, 274, 57], [273, 274, 60], [274, 275, 11], [274, 275, 31], [274, 275, 55], [274, 275, 57], [274, 275, 60], [275, 276, 11], [275, 276, 31], [275, 276, 55], [275, 276, 57], [275, 276, 60], [276, 277, 11], [276, 277, 56], [276, 277, 57], [276, 277, 60], [277, 278, 11], [277, 278, 56], [277, 278, 57], [277, 278, 60], [278, 272, 11], [278, 272, 56], [278, 272, 57], [278, 272, 60], [279, 270, 56], [280, 229, 18], [287, 288, 24], [288, 289, 39], [288, 289, 58], [288, 338, 24], [289, 290, 39], [289, 290, 58], [290, 291, 39], [290, 291, 58], [291, 292, 39], [291, 292, 58], [292, 293, 39], [292, 293, 58], [293, 294, 39], [293, 294, 58], [294, 50, 39], [294, 51, 58], [295, 49, 39], [302, 246, 25], [303, 304, 25], [304, 302, 25], [308, 261, 24], [321, 322, 58], [322, 307, 58], [332, 333, 3], [333, 334, 3], [334, 59, 3], [338, 308, 24]]
List of All Routes is {'Route_1': [128, 5, 75, 6, 20, 21, 2], 'Route_1_1': [2, 21, 20, 6, 75, 5, 128], 'Route_2': [25, 26, 0, 4, 5, 6, 7], 'Route_2_1': [7, 6, 5, 4, 0, 26, 25], 'Route_3': [7, 77, 8, 120, 9, 79, 52, 332, 333, 334, 59], 'Route_3_1': [59, 334, 333, 332, 52, 79, 9, 120, 8, 77, 7], 'Route_4': [128, 5, 75, 6, 20, 129, 130], 'Route_4_1': [130, 129, 20, 6, 75, 5, 128], 'Route_5': [128, 5, 75, 6, 20, 21, 2], 'Route_5_1': [2, 21, 20, 6, 75, 5, 128], 'Route_6': [3, 4, 5, 75, 6, 76, 7], 'Route_6_1': [7, 76, 6, 75, 5, 4, 3], 'Route_7': [128, 5, 75, 6, 20, 21, 2], 'Route_7_1': [2, 21, 20, 6, 75, 5, 128], 'Route_8': [128, 5, 75, 6, 20, 21, 2], 'Route_8_1': [2, 21, 20, 6, 75, 5, 128], 'Route_9': [7, 6, 20, 21, 0, 1, 2], 'Route_9_1': [2, 1, 0, 21, 20, 6, 7], 'Route_10': [126, 127, 197, 107, 118, 70, 71, 72, 73], 'Route_10_1': [73, 72, 71, 70, 118, 107, 197, 127, 126], 'Route_11': [276, 277, 278, 272, 273, 274, 275, 276], 'Route_12': [128, 5, 75, 6, 20, 21, 2], 'Route_12_1': [2, 21, 20, 6, 75, 5, 128], 'Route_13': [128, 5, 75, 6, 20, 21, 2], 'Route_13_1': [2, 21, 20, 6, 75, 5, 128], 'Route_14': [113, 119, 35, 36, 37, 38, 114, 39, 40, 41, 42, 131, 132, 133, 135, 136, 137, 150, 149, 148, 151, 138, 139, 140, 141, 142, 143, 144, 145, 2], 'Route_14_1': [2, 145, 144, 143, 142, 141, 140, 139, 138, 151, 148, 149, 150, 137, 136, 135, 133, 132, 131, 42, 41, 40, 39, 114, 38, 37, 36, 35, 119, 113], 'Route_15': [128, 5, 75, 6, 20, 21, 2], 'Route_15_1': [2, 21, 20, 6, 75, 5, 128], 'Route_16': [128, 5, 75, 6, 20, 21, 2], 'Route_16_1': [2, 21, 20, 6, 75, 5, 128], 'Route_17': [3, 4, 5, 6, 20, 21, 2], 'Route_17_1': [2, 21, 20, 6, 5, 4, 3], 'Route_18': [234, 105, 68, 213, 214, 280, 229, 230, 69, 70, 71, 72, 73], 'Route_18_1': [73, 72, 71, 70, 69, 230, 229, 280, 214, 213, 68, 105, 234], 'Route_19': [128, 5, 75, 6, 20, 21, 2], 'Route_19_1': [2, 21, 20, 6, 75, 5, 128], 'Route_20': [128, 5, 75, 6, 20, 21, 2], 'Route_20_1': [2, 21, 20, 6, 75, 5, 128], 'Route_21': [128, 5, 75, 6, 20, 21, 2], 'Route_21_1': [2, 21, 20, 6, 75, 5, 128], 'Route_22': [3, 4, 5, 6, 20, 21, 2], 'Route_22_1': [2, 21, 20, 6, 5, 4, 3], 'Route_23': [128, 5, 75, 6, 20, 21, 2], 'Route_23_1': [2, 21, 20, 6, 75, 5, 128], 'Route_24': [288, 338, 308, 261, 262, 263, 211, 178, 266, 267, 287, 288], 'Route_25': [255, 303, 304, 302, 246, 247, 248, 249, 254, 253], 'Route_25_1': [253, 254, 249, 248, 247, 246, 302, 304, 303, 255], 'Route_26': [3, 4, 5, 6, 20, 129, 130], 'Route_26_1': [130, 129, 20, 6, 5, 4, 3], 'Route_27': [128, 5, 75, 6, 20, 21, 2], 'Route_27_1': [2, 21, 20, 6, 75, 5, 128], 'Route_28': [128, 5, 75, 6, 20, 21, 2], 'Route_28_1': [2, 21, 20, 6, 75, 5, 128], 'Route_29': [128, 5, 75, 6, 20, 129, 130], 'Route_29_1': [130, 129, 20, 6, 75, 5, 128], 'Route_30': [128, 5, 75, 6, 20, 129, 130], 'Route_30_1': [130, 129, 20, 6, 75, 5, 128], 'Route_31': [165, 270, 271, 272, 273, 274, 275, 276], 'Route_31_1': [276, 275, 274, 273, 272, 271, 270, 165], 'Route_32': [3, 4, 5, 75, 6, 76, 7], 'Route_32_1': [7, 76, 6, 75, 5, 4, 3], 'Route_33': [128, 5, 75, 6, 20, 21, 2], 'Route_33_1': [2, 21, 20, 6, 75, 5, 128], 'Route_34': [231, 127, 106, 107, 118, 70, 71, 72, 73], 'Route_34_1': [73, 72, 71, 70, 118, 107, 106, 127, 231], 'Route_35': [128, 5, 75, 6, 20, 21, 2], 'Route_35_1': [2, 21, 20, 6, 75, 5, 128], 'Route_36': [3, 4, 5, 75, 6, 20, 21, 2], 'Route_36_1': [2, 21, 20, 6, 75, 5, 4, 3], 'Route_37': [128, 5, 75, 6, 20, 21, 2], 'Route_37_1': [2, 21, 20, 6, 75, 5, 128], 'Route_38': [3, 4, 5, 75, 6, 76, 7], 'Route_38_1': [7, 76, 6, 75, 5, 4, 3], 'Route_39': [288, 289, 290, 291, 292, 293, 294, 50, 295, 49, 237, 238, 239, 255], 'Route_39_1': [255, 239, 238, 237, 49, 295, 50, 294, 293, 292, 291, 290, 289, 288], 'Route_40': [3, 4, 5, 6, 20, 21, 2], 'Route_40_1': [2, 21, 20, 6, 5, 4, 3], 'Route_41': [128, 5, 75, 6, 20, 21, 2], 'Route_41_1': [2, 21, 20, 6, 75, 5, 128], 'Route_42': [2, 22, 152, 153, 110, 111, 112, 41, 115, 116, 117, 109, 155, 0, 25], 'Route_42_1': [25, 0, 155, 109, 117, 116, 115, 41, 112, 111, 110, 153, 152, 22, 2], 'Route_43': [128, 5, 75, 6, 20, 21, 2], 'Route_43_1': [2, 21, 20, 6, 75, 5, 128], 'Route_44': [233, 208, 209, 210, 173, 235, 236, 237, 238, 239, 240, 241, 242, 243], 'Route_44_1': [243, 242, 241, 240, 239, 238, 237, 236, 235, 173, 210, 209, 208, 233], 'Route_45': [233, 208, 209, 210, 173, 235, 236, 237, 238, 239, 240, 255], 'Route_45_1': [255, 240, 239, 238, 237, 236, 235, 173, 210, 209, 208, 233], 'Route_46': [233, 208, 209, 210, 173, 235, 236, 237, 238, 239, 240, 255], 'Route_46_1': [255, 240, 239, 238, 237, 236, 235, 173, 210, 209, 208, 233], 'Route_47': [233, 208, 209, 210, 173, 235, 236, 237, 238, 239, 255], 'Route_47_1': [255, 239, 238, 237, 236, 235, 173, 210, 209, 208, 233], 'Route_48': [233, 208, 209, 210, 173, 235, 236, 237, 238, 239, 240, 255], 'Route_48_1': [255, 240, 239, 238, 237, 236, 235, 173, 210, 209, 208, 233], 'Route_49': [233, 208, 209, 210, 173, 235, 236, 237, 238, 239, 255], 'Route_49_1': [255, 239, 238, 237, 236, 235, 173, 210, 209, 208, 233], 'Route_50': [233, 208, 209, 210, 173, 235, 236, 237, 238, 239, 255], 'Route_50_1': [255, 239, 238, 237, 236, 235, 173, 210, 209, 208, 233], 'Route_51': [233, 208, 209, 210, 173, 235, 236, 237, 238, 239, 255], 'Route_51_1': [255, 239, 238, 237, 236, 235, 173, 210, 209, 208, 233], 'Route_52': [233, 208, 209, 172, 173, 235, 236, 237, 238, 239, 240, 255], 'Route_52_1': [255, 240, 239, 238, 237, 236, 235, 173, 172, 209, 208, 233], 'Route_53': [233, 208, 209, 210, 173, 235, 236, 237, 238, 239, 255], 'Route_53_1': [255, 239, 238, 237, 236, 235, 173, 210, 209, 208, 233], 'Route_54': [233, 208, 209, 172, 173, 235, 236, 237, 238, 239, 240, 255], 'Route_54_1': [255, 240, 239, 238, 237, 236, 235, 173, 172, 209, 208, 233], 'Route_55': [165, 270, 271, 272, 273, 274, 275, 276], 'Route_55_1': [276, 275, 274, 273, 272, 271, 270, 165], 'Route_56': [276, 277, 278, 272, 279, 270, 165], 'Route_56_1': [165, 270, 279, 272, 278, 277, 276], 'Route_57': [276, 277, 278, 272, 273, 274, 275, 276], 'Route_58': [288, 289, 290, 291, 292, 293, 294, 51, 321, 322, 307], 'Route_58_1': [307, 322, 321, 51, 294, 293, 292, 291, 290, 289, 288], 'Route_59': [265, 60, 61, 62, 63, 64, 65, 66, 9, 7], 'Route_59_1': [7, 9, 66, 65, 64, 63, 62, 61, 60, 265], 'Route_60': [276, 277, 278, 272, 273, 274, 275, 276]}
